(set-logic QF_S)
(declare-fun S () String)
(declare-fun N () String)
(declare-fun J () String)
(declare-fun X () String)
(declare-fun H () String)
(declare-fun K () String)
(declare-fun R () String)
(declare-fun L () String)
(declare-fun O () String)
(assert (= (str.++  "aaaaaaa" J "aaaaaaaaaa" J "aab" K "aa" K "a" K K K "b" O S "ab" S S "b")  (str.++  "a" H H "aaaa" K K N N L K K N N L "b" S "a" R S "a" R "b" S "a" S "ab" X X "baa") ))
(check-sat)
(get-model)
